c cksystemsgroup.github.io/unicorn
c CNF contains a total of 52 clauses.
c CNF contains a total of 23 variables.
c CNF clauses cover 1 bad states.
c Variable name mapping (9 names):
c   1: input[bit=7]
c   3: input[bit=6]
c   5: input[bit=5]
c   7: input[bit=4]
c   9: input[bit=3]
c   11: input[bit=2]
c   13: input[bit=1]
c   15: input[bit=0]
c   23: ?
p cnf 23 52
2 0
4 0
6 0
8 0
10 0
12 0
14 0
13 14 -16 0
13 15 -16 0
-14 -15 16 0
14 15 -16 0
-13 -15 16 0
-13 -14 16 0
11 12 -17 0
11 16 -17 0
-12 -16 17 0
12 16 -17 0
-11 -16 17 0
-11 -12 17 0
9 10 -18 0
9 17 -18 0
-10 -17 18 0
10 17 -18 0
-9 -17 18 0
-9 -10 18 0
7 8 -19 0
7 18 -19 0
-8 -18 19 0
8 18 -19 0
-7 -18 19 0
-7 -8 19 0
5 6 -20 0
5 19 -20 0
-6 -19 20 0
6 19 -20 0
-5 -19 20 0
-5 -6 20 0
3 4 -21 0
3 20 -21 0
-4 -20 21 0
4 20 -21 0
-3 -20 21 0
-3 -4 21 0
1 2 -22 0
1 21 -22 0
-2 -21 22 0
2 21 -22 0
-1 -21 22 0
-1 -2 22 0
-22 -23 0
22 23 0
23 0
